n_machines = 10;
n_resources = 12;
n_jobs = 120;
horizon = 5958;
LB = 641;
n_jobs_per_resource = [10, 10, 10, 10, 10, 10, 10, 10, 10, 10, 10, 10];
duration = [34, 63, 84, 95, 86, 27, 57, 97, 96, 2, 78, 27, 42, 8, 74, 16, 23, 87, 73, 90, 18, 84, 97, 45, 93, 5, 5, 9, 52, 23, 67, 31, 78, 97, 62, 59, 87, 30, 32, 17, 93, 93, 4, 18, 8, 59, 36, 99, 12, 99, 6, 86, 25, 66, 92, 45, 27, 80, 28, 63, 42, 29, 88, 5, 63, 80, 80, 18, 36, 99, 9, 21, 61, 11, 76, 82, 46, 19, 75, 58, 53, 49, 37, 62, 21, 16, 21, 78, 55, 56, 1, 1, 90, 70, 79, 90, 62, 93, 42, 16, 18, 74, 8, 8, 28, 67, 35, 3, 10, 58, 3, 67, 30, 25, 11, 79, 61, 95, 96, 3]